
Gurobi 6.0.5 (linux64) logging started Mon Oct 23 09:40:48 2017


Gurobi 6.0.5 (linux64) logging started Mon Oct 23 09:41:27 2017


Gurobi 6.0.5 (linux64) logging started Mon Oct 23 09:41:40 2017


Gurobi 6.0.5 (linux64) logging started Mon Oct 23 09:42:19 2017


Gurobi 6.0.5 (linux64) logging started Mon Oct 23 09:42:33 2017


Gurobi 6.0.5 (linux64) logging started Mon Oct 23 09:43:11 2017

